solution status: optimal solution found
objective value:                                    0
$_16__1_y                                          23 	(obj:0)
$_16__1_z                                           1 	(obj:0)
$_14__1_y                                          11 	(obj:0)
$_14__1_z                                           5 	(obj:0)
thingy.collect_pinholes[1].hole_y                   11 	(obj:0)
thingy.collect_pinholes[1].hole_z                   23 	(obj:0)
thingy.collect_pinholes[0].hole_y                   11 	(obj:0)
thingy.collect_pinholes[0].hole_z                   15 	(obj:0)
$_12__1_y                                          16 	(obj:0)
$_12__1_z                                          25 	(obj:0)
thingy.collect_pinholes[2].hole_y                   11 	(obj:0)
thingy.collect_pinholes[2].hole_z                    4 	(obj:0)
$_15__1_y                                          11 	(obj:0)
$_15__1_z                                          22 	(obj:0)
$_11__1_y                                          23 	(obj:0)
$_11__1_z                                          25 	(obj:0)
thingy.ctrl_collect_hole_y                         11 	(obj:0)
thingy.ctrl_collect_hole_z                         11 	(obj:0)
thingy.collect_pinholes[3].hole_y                   13 	(obj:0)
thingy.collect_pinholes[3].hole_z                    2 	(obj:0)
thingy.flush_collect_hole_y                        13 	(obj:0)
thingy.flush_collect_hole_z                         6 	(obj:0)
$_13__1_y                                          11 	(obj:0)
$_13__1_z                                           1 	(obj:0)
